; PUSH cw_4 SWAP4 DUP5 AND PUSH cw_2 SWAP1 => PUSH cw_2 PUSH cw_4 SWAP5 PUSH cw_4 AND
(set-option :produce-proofs true)
; 
(set-info :status unknown)
(declare-fun storage_t ((_ BitVec 256) (_ BitVec 256) (_ BitVec 256) (_ BitVec 256) (_ BitVec 256) (_ BitVec 256) Int (_ BitVec 256)) (_ BitVec 256))
(declare-fun w_2 () (_ BitVec 256))
(declare-fun w_4 () (_ BitVec 256))
(declare-fun storage_s ((_ BitVec 256) (_ BitVec 256) (_ BitVec 256) (_ BitVec 256) (_ BitVec 256) (_ BitVec 256) Int (_ BitVec 256)) (_ BitVec 256))
(declare-fun exc_halt_t (Int) Bool)
(declare-fun exc_halt_s (Int) Bool)
(declare-fun stack_t ((_ BitVec 256) (_ BitVec 256) (_ BitVec 256) (_ BitVec 256) (_ BitVec 256) (_ BitVec 256) Int (_ BitVec 6)) (_ BitVec 256))
(declare-fun stack_s ((_ BitVec 256) (_ BitVec 256) (_ BitVec 256) (_ BitVec 256) (_ BitVec 256) (_ BitVec 256) Int (_ BitVec 6)) (_ BitVec 256))
(declare-fun sc_t (Int) (_ BitVec 6))
(declare-fun sc_s (Int) (_ BitVec 6))
(declare-fun used_gas_t ((_ BitVec 256) (_ BitVec 256) (_ BitVec 256) (_ BitVec 256) (_ BitVec 256) (_ BitVec 256) Int) Int)
(declare-fun used_gas_s ((_ BitVec 256) (_ BitVec 256) (_ BitVec 256) (_ BitVec 256) (_ BitVec 256) (_ BitVec 256) Int) Int)
(assert
 (exists ((x_0 (_ BitVec 256)) (x_1 (_ BitVec 256)) (x_2 (_ BitVec 256)) (x_3 (_ BitVec 256)) )(let (($x7653 (forall ((w (_ BitVec 256)) )(let ((?x4790 (storage_t x_0 x_1 x_2 x_3 w_4 w_2 5 w)))
 (let ((?x9645 (storage_s x_0 x_1 x_2 x_3 w_4 w_2 6 w)))
 (= ?x9645 ?x4790))))
 ))
 (let (($x886 (exc_halt_t 5)))
 (let (($x772 (exc_halt_s 6)))
 (let (($x889 (= $x772 $x886)))
 (let (($x11457 (forall ((n (_ BitVec 6)) )(let ((?x9951 (stack_t x_0 x_1 x_2 x_3 w_4 w_2 5 n)))
 (let ((?x3695 (stack_s x_0 x_1 x_2 x_3 w_4 w_2 6 n)))
 (let (($x8980 (= ?x3695 ?x9951)))
 (or (bvsle (sc_t 5) n) $x8980)))))
 ))
 (let ((?x919 (sc_t 5)))
 (let ((?x926 (sc_s 6)))
 (let (($x929 (= ?x926 ?x919)))
 (let ((?x9920 (used_gas_t x_0 x_1 x_2 x_3 w_4 w_2 0)))
 (let ((?x3114 (used_gas_s x_0 x_1 x_2 x_3 w_4 w_2 0)))
 (let (($x8121 (= ?x3114 ?x9920)))
 (let (($x6618 (forall ((w (_ BitVec 256)) )(let ((?x2303 (storage_t x_0 x_1 x_2 x_3 w_4 w_2 0 w)))
 (let ((?x1521 (storage_s x_0 x_1 x_2 x_3 w_4 w_2 0 w)))
 (= ?x1521 ?x2303))))
 ))
 (let (($x56 (exc_halt_t 0)))
 (let (($x57 (exc_halt_s 0)))
 (let (($x58 (= $x57 $x56)))
 (let (($x7923 (forall ((n (_ BitVec 6)) )(let ((?x5070 (stack_t x_0 x_1 x_2 x_3 w_4 w_2 0 n)))
 (let ((?x9782 (stack_s x_0 x_1 x_2 x_3 w_4 w_2 0 n)))
 (let (($x10487 (= ?x9782 ?x5070)))
 (let ((?x63 (sc_t 0)))
 (let (($x6686 (bvsle ?x63 n)))
 (or $x6686 $x10487)))))))
 ))
 (let ((?x63 (sc_t 0)))
 (let ((?x72 (sc_s 0)))
 (let (($x73 (= ?x72 ?x63)))
 (let (($x5168 (= $x886 (or (exc_halt_t 4) (not (bvsle (_ bv0 6) (bvadd (_ bv62 6) (sc_t 4))))))))
 (let (($x4704 (forall ((w (_ BitVec 256)) )(let ((?x510 (storage_t x_0 x_1 x_2 x_3 w_4 w_2 4 w)))
 (let ((?x4790 (storage_t x_0 x_1 x_2 x_3 w_4 w_2 5 w)))
 (= ?x4790 ?x510))))
 ))
 (let (($x6649 (forall ((n (_ BitVec 6)) )(let ((?x9411 (stack_t x_0 x_1 x_2 x_3 w_4 w_2 4 n)))
 (let ((?x9951 (stack_t x_0 x_1 x_2 x_3 w_4 w_2 5 n)))
 (or (bvsle (bvadd (_ bv62 6) (sc_t 4)) n) (= ?x9951 ?x9411)))))
 ))
 (let (($x8989 (= (used_gas_t x_0 x_1 x_2 x_3 w_4 w_2 5) (+ 3 (used_gas_t x_0 x_1 x_2 x_3 w_4 w_2 4)))))
 (let ((?x1098 (sc_t 4)))
 (let ((?x2558 (bvadd (_ bv62 6) ?x1098)))
 (let ((?x3147 (bvnot (stack_t x_0 x_1 x_2 x_3 w_4 w_2 4 (bvadd (_ bv63 6) ?x1098)))))
 (let ((?x8252 (bvor ?x3147 (bvnot (stack_t x_0 x_1 x_2 x_3 w_4 w_2 4 ?x2558)))))
 (let (($x4614 (= (stack_t x_0 x_1 x_2 x_3 w_4 w_2 5 (bvadd (_ bv63 6) ?x919)) (bvnot ?x8252))))
 (let (($x6783 (exc_halt_t 3)))
 (let (($x3825 (or $x6783 (not (= ((_ extract 6 6) (bvadd (_ bv1 7) (concat (_ bv0 1) (sc_t 3)))) (_ bv0 1))))))
 (let (($x3723 (exc_halt_t 4)))
 (let (($x7729 (forall ((w (_ BitVec 256)) )(let ((?x3070 (storage_t x_0 x_1 x_2 x_3 w_4 w_2 3 w)))
 (let ((?x510 (storage_t x_0 x_1 x_2 x_3 w_4 w_2 4 w)))
 (= ?x510 ?x3070))))
 ))
 (let (($x9622 (forall ((n (_ BitVec 6)) )(let ((?x6438 (sc_t 3)))
 (let (($x5838 (bvsle ?x6438 n)))
 (let ((?x7027 (stack_t x_0 x_1 x_2 x_3 w_4 w_2 3 n)))
 (let ((?x9411 (stack_t x_0 x_1 x_2 x_3 w_4 w_2 4 n)))
 (or (= ?x9411 ?x7027) $x5838))))))
 ))
 (let ((?x1918 (used_gas_t x_0 x_1 x_2 x_3 w_4 w_2 4)))
 (let (($x2044 (= ?x1918 (+ 3 (used_gas_t x_0 x_1 x_2 x_3 w_4 w_2 3)))))
 (let (($x9855 (= (stack_t x_0 x_1 x_2 x_3 w_4 w_2 4 (sc_t 3)) w_4)))
 (let (($x10240 (= $x6783 (or (exc_halt_t 2) (not (bvsle (_ bv0 6) (bvadd (_ bv58 6) (sc_t 2))))))))
 (let (($x8173 (forall ((w (_ BitVec 256)) )(let ((?x6977 (storage_t x_0 x_1 x_2 x_3 w_4 w_2 2 w)))
 (let ((?x3070 (storage_t x_0 x_1 x_2 x_3 w_4 w_2 3 w)))
 (= ?x3070 ?x6977))))
 ))
 (let (($x11115 (forall ((n (_ BitVec 6)) )(let ((?x3307 (stack_t x_0 x_1 x_2 x_3 w_4 w_2 2 n)))
 (let ((?x7027 (stack_t x_0 x_1 x_2 x_3 w_4 w_2 3 n)))
 (or (= ?x7027 ?x3307) (bvsle (bvadd (_ bv58 6) (sc_t 2)) n)))))
 ))
 (let ((?x2714 (sc_t 2)))
 (let ((?x6438 (sc_t 3)))
 (let (($x2407 (= ?x6438 ?x2714)))
 (let ((?x4638 (used_gas_t x_0 x_1 x_2 x_3 w_4 w_2 3)))
 (let (($x2448 (= ?x4638 (+ 3 (used_gas_t x_0 x_1 x_2 x_3 w_4 w_2 2)))))
 (let (($x6217 (= (stack_t x_0 x_1 x_2 x_3 w_4 w_2 3 (bvadd (_ bv62 6) ?x6438)) (stack_t x_0 x_1 x_2 x_3 w_4 w_2 2 (bvadd (_ bv62 6) ?x2714)))))
 (let (($x1399 (= (stack_t x_0 x_1 x_2 x_3 w_4 w_2 3 (bvadd (_ bv61 6) ?x6438)) (stack_t x_0 x_1 x_2 x_3 w_4 w_2 2 (bvadd (_ bv61 6) ?x2714)))))
 (let (($x10528 (= (stack_t x_0 x_1 x_2 x_3 w_4 w_2 3 (bvadd (_ bv60 6) ?x6438)) (stack_t x_0 x_1 x_2 x_3 w_4 w_2 2 (bvadd (_ bv60 6) ?x2714)))))
 (let (($x6731 (= (stack_t x_0 x_1 x_2 x_3 w_4 w_2 3 (bvadd (_ bv59 6) ?x6438)) (stack_t x_0 x_1 x_2 x_3 w_4 w_2 2 (bvadd (_ bv59 6) ?x2714)))))
 (let (($x863 (= (stack_t x_0 x_1 x_2 x_3 w_4 w_2 3 (bvadd (_ bv58 6) ?x6438)) (stack_t x_0 x_1 x_2 x_3 w_4 w_2 2 (bvadd (_ bv63 6) ?x2714)))))
 (let (($x4632 (= (stack_t x_0 x_1 x_2 x_3 w_4 w_2 3 (bvadd (_ bv63 6) ?x6438)) (stack_t x_0 x_1 x_2 x_3 w_4 w_2 2 (bvadd (_ bv58 6) ?x2714)))))
 (let (($x11639 (not (= ((_ extract 6 6) (bvadd (_ bv1 7) (concat (_ bv0 1) (sc_t 1)))) (_ bv0 1)))))
 (let (($x3508 (exc_halt_t 1)))
 (let (($x5252 (exc_halt_t 2)))
 (let (($x10027 (= $x5252 (or $x3508 $x11639))))
 (let (($x6352 (forall ((w (_ BitVec 256)) )(let ((?x6416 (storage_t x_0 x_1 x_2 x_3 w_4 w_2 1 w)))
 (let ((?x6977 (storage_t x_0 x_1 x_2 x_3 w_4 w_2 2 w)))
 (= ?x6977 ?x6416))))
 ))
 (let (($x3859 (forall ((n (_ BitVec 6)) )(let ((?x8347 (sc_t 1)))
 (let (($x866 (bvsle ?x8347 n)))
 (let ((?x10050 (stack_t x_0 x_1 x_2 x_3 w_4 w_2 1 n)))
 (let ((?x3307 (stack_t x_0 x_1 x_2 x_3 w_4 w_2 2 n)))
 (or (= ?x3307 ?x10050) $x866))))))
 ))
 (let (($x5193 (= ?x2714 (bvadd (_ bv1 6) (sc_t 1)))))
 (let ((?x6041 (used_gas_t x_0 x_1 x_2 x_3 w_4 w_2 2)))
 (let (($x3519 (= ?x6041 (+ 3 (used_gas_t x_0 x_1 x_2 x_3 w_4 w_2 1)))))
 (let (($x1334 (= (stack_t x_0 x_1 x_2 x_3 w_4 w_2 2 (sc_t 1)) w_4)))
 (let (($x3632 (= $x3508 (or $x56 (not (= ((_ extract 6 6) (bvadd (_ bv1 7) (concat (_ bv0 1) ?x63))) (_ bv0 1)))))))
 (let (($x11699 (forall ((w (_ BitVec 256)) )(let ((?x2303 (storage_t x_0 x_1 x_2 x_3 w_4 w_2 0 w)))
 (let ((?x6416 (storage_t x_0 x_1 x_2 x_3 w_4 w_2 1 w)))
 (= ?x6416 ?x2303))))
 ))
 (let (($x8771 (forall ((n (_ BitVec 6)) )(let ((?x5070 (stack_t x_0 x_1 x_2 x_3 w_4 w_2 0 n)))
 (let ((?x10050 (stack_t x_0 x_1 x_2 x_3 w_4 w_2 1 n)))
 (let ((?x63 (sc_t 0)))
 (let (($x6686 (bvsle ?x63 n)))
 (or $x6686 (= ?x10050 ?x5070)))))))
 ))
 (let ((?x8347 (sc_t 1)))
 (let (($x7135 (= ?x8347 (bvadd (_ bv1 6) ?x63))))
 (let ((?x4558 (used_gas_t x_0 x_1 x_2 x_3 w_4 w_2 1)))
 (let (($x10480 (= $x772 (or (exc_halt_s 5) (not (bvsle (_ bv0 6) (bvadd (_ bv62 6) (sc_s 5))))))))
 (let (($x11383 (forall ((w (_ BitVec 256)) )(let ((?x11010 (storage_s x_0 x_1 x_2 x_3 w_4 w_2 5 w)))
 (let ((?x9645 (storage_s x_0 x_1 x_2 x_3 w_4 w_2 6 w)))
 (= ?x9645 ?x11010))))
 ))
 (let (($x5609 (forall ((n (_ BitVec 6)) )(let ((?x4319 (sc_s 5)))
 (let ((?x9553 (bvadd (_ bv62 6) ?x4319)))
 (let (($x8637 (bvsle ?x9553 n)))
 (let ((?x2666 (stack_s x_0 x_1 x_2 x_3 w_4 w_2 5 n)))
 (let ((?x3695 (stack_s x_0 x_1 x_2 x_3 w_4 w_2 6 n)))
 (or (= ?x3695 ?x2666) $x8637)))))))
 ))
 (let ((?x4319 (sc_s 5)))
 (let (($x2469 (= ?x926 ?x4319)))
 (let (($x2787 (= (used_gas_s x_0 x_1 x_2 x_3 w_4 w_2 6) (+ 3 (used_gas_s x_0 x_1 x_2 x_3 w_4 w_2 5)))))
 (let (($x11334 (= (stack_s x_0 x_1 x_2 x_3 w_4 w_2 6 (bvadd (_ bv62 6) ?x926)) (stack_s x_0 x_1 x_2 x_3 w_4 w_2 5 (bvadd (_ bv63 6) ?x4319)))))
 (let (($x11277 (= (stack_s x_0 x_1 x_2 x_3 w_4 w_2 6 (bvadd (_ bv63 6) ?x926)) (stack_s x_0 x_1 x_2 x_3 w_4 w_2 5 (bvadd (_ bv62 6) ?x4319)))))
 (let (($x7527 (not (= ((_ extract 6 6) (bvadd (_ bv1 7) (concat (_ bv0 1) (sc_s 4)))) (_ bv0 1)))))
 (let (($x7172 (exc_halt_s 4)))
 (let (($x11317 (exc_halt_s 5)))
 (let (($x10938 (forall ((w (_ BitVec 256)) )(let ((?x1788 (storage_s x_0 x_1 x_2 x_3 w_4 w_2 4 w)))
 (let ((?x11010 (storage_s x_0 x_1 x_2 x_3 w_4 w_2 5 w)))
 (= ?x11010 ?x1788))))
 ))
 (let (($x5659 (forall ((n (_ BitVec 6)) )(let ((?x4266 (stack_s x_0 x_1 x_2 x_3 w_4 w_2 4 n)))
 (let ((?x2666 (stack_s x_0 x_1 x_2 x_3 w_4 w_2 5 n)))
 (or (bvsle (sc_s 4) n) (= ?x2666 ?x4266)))))
 ))
 (let (($x6597 (= ?x4319 (bvadd (_ bv1 6) (sc_s 4)))))
 (let ((?x3279 (used_gas_s x_0 x_1 x_2 x_3 w_4 w_2 5)))
 (let (($x9957 (= ?x3279 (+ 3 (used_gas_s x_0 x_1 x_2 x_3 w_4 w_2 4)))))
 (let (($x5467 (= (stack_s x_0 x_1 x_2 x_3 w_4 w_2 5 (sc_s 4)) w_2)))
 (let (($x1015 (= $x7172 (or (exc_halt_s 3) (not (bvsle (_ bv0 6) (bvadd (_ bv62 6) (sc_s 3))))))))
 (let (($x3132 (forall ((w (_ BitVec 256)) )(let ((?x2003 (storage_s x_0 x_1 x_2 x_3 w_4 w_2 3 w)))
 (let ((?x1788 (storage_s x_0 x_1 x_2 x_3 w_4 w_2 4 w)))
 (= ?x1788 ?x2003))))
 ))
 (let (($x5663 (forall ((n (_ BitVec 6)) )(let ((?x275 (sc_s 3)))
 (let ((?x5458 (bvadd (_ bv62 6) ?x275)))
 (let (($x10220 (bvsle ?x5458 n)))
 (let ((?x1469 (stack_s x_0 x_1 x_2 x_3 w_4 w_2 3 n)))
 (let ((?x4266 (stack_s x_0 x_1 x_2 x_3 w_4 w_2 4 n)))
 (or (= ?x4266 ?x1469) $x10220)))))))
 ))
 (let ((?x6248 (used_gas_s x_0 x_1 x_2 x_3 w_4 w_2 4)))
 (let (($x472 (= ?x6248 (+ 3 (used_gas_s x_0 x_1 x_2 x_3 w_4 w_2 3)))))
 (let ((?x275 (sc_s 3)))
 (let ((?x5458 (bvadd (_ bv62 6) ?x275)))
 (let ((?x3893 (bvadd (_ bv63 6) ?x275)))
 (let ((?x4460 (stack_s x_0 x_1 x_2 x_3 w_4 w_2 3 ?x3893)))
 (let ((?x7549 (bvor (bvnot ?x4460) (bvnot (stack_s x_0 x_1 x_2 x_3 w_4 w_2 3 ?x5458)))))
 (let ((?x4305 (sc_s 4)))
 (let ((?x7978 (bvadd (_ bv63 6) ?x4305)))
 (let (($x630 (= (stack_s x_0 x_1 x_2 x_3 w_4 w_2 4 ?x7978) (bvnot ?x7549))))
 (let (($x6537 (not (= ((_ extract 6 6) (bvadd (_ bv1 7) (concat (_ bv0 1) (sc_s 2)))) (_ bv0 1)))))
 (let (($x247 (exc_halt_s 2)))
 (let (($x292 (exc_halt_s 3)))
 (let (($x5946 (= $x292 (or $x247 $x6537 (not (bvsle (_ bv0 6) (bvadd (_ bv59 6) (sc_s 2))))))))
 (let (($x7324 (forall ((w (_ BitVec 256)) )(let ((?x599 (storage_s x_0 x_1 x_2 x_3 w_4 w_2 2 w)))
 (let ((?x2003 (storage_s x_0 x_1 x_2 x_3 w_4 w_2 3 w)))
 (= ?x2003 ?x599))))
 ))
 (let (($x762 (forall ((n (_ BitVec 6)) )(let ((?x218 (sc_s 2)))
 (let ((?x10940 (bvadd (_ bv59 6) ?x218)))
 (let (($x8110 (bvsle ?x10940 n)))
 (let ((?x3342 (stack_s x_0 x_1 x_2 x_3 w_4 w_2 2 n)))
 (let ((?x1469 (stack_s x_0 x_1 x_2 x_3 w_4 w_2 3 n)))
 (or (= ?x1469 ?x3342) $x8110)))))))
 ))
 (let (($x7666 (= ?x275 (bvadd (_ bv1 6) (sc_s 2)))))
 (let ((?x11213 (used_gas_s x_0 x_1 x_2 x_3 w_4 w_2 3)))
 (let (($x5017 (= ?x11213 (+ 3 (used_gas_s x_0 x_1 x_2 x_3 w_4 w_2 2)))))
 (let ((?x218 (sc_s 2)))
 (let ((?x5211 (bvadd (_ bv63 6) ?x218)))
 (let ((?x2986 (stack_s x_0 x_1 x_2 x_3 w_4 w_2 2 ?x5211)))
 (let ((?x5834 (bvadd (_ bv62 6) ?x218)))
 (let ((?x4449 (stack_s x_0 x_1 x_2 x_3 w_4 w_2 2 ?x5834)))
 (let ((?x9995 (bvadd (_ bv61 6) ?x218)))
 (let ((?x10257 (stack_s x_0 x_1 x_2 x_3 w_4 w_2 2 ?x9995)))
 (let ((?x11456 (bvadd (_ bv60 6) ?x218)))
 (let ((?x8055 (stack_s x_0 x_1 x_2 x_3 w_4 w_2 2 ?x11456)))
 (let ((?x10940 (bvadd (_ bv59 6) ?x218)))
 (let ((?x3363 (stack_s x_0 x_1 x_2 x_3 w_4 w_2 2 ?x10940)))
 (let (($x6900 (= $x247 (or (exc_halt_s 1) (not (bvsle (_ bv0 6) (bvadd (_ bv59 6) (sc_s 1))))))))
 (let (($x6987 (forall ((w (_ BitVec 256)) )(let ((?x6946 (storage_s x_0 x_1 x_2 x_3 w_4 w_2 1 w)))
 (let ((?x599 (storage_s x_0 x_1 x_2 x_3 w_4 w_2 2 w)))
 (= ?x599 ?x6946))))
 ))
 (let (($x7585 (forall ((n (_ BitVec 6)) )(let ((?x2337 (stack_s x_0 x_1 x_2 x_3 w_4 w_2 1 n)))
 (let ((?x3342 (stack_s x_0 x_1 x_2 x_3 w_4 w_2 2 n)))
 (let ((?x154 (sc_s 1)))
 (let ((?x5584 (bvadd (_ bv59 6) ?x154)))
 (let (($x9767 (bvsle ?x5584 n)))
 (or $x9767 (= ?x3342 ?x2337))))))))
 ))
 (let ((?x154 (sc_s 1)))
 (let (($x564 (= ?x218 ?x154)))
 (let ((?x7914 (used_gas_s x_0 x_1 x_2 x_3 w_4 w_2 2)))
 (let (($x3287 (= ?x7914 (+ 3 (used_gas_s x_0 x_1 x_2 x_3 w_4 w_2 1)))))
 (let (($x1872 (= ?x4449 (stack_s x_0 x_1 x_2 x_3 w_4 w_2 1 (bvadd (_ bv62 6) ?x154)))))
 (let (($x11774 (= ?x10257 (stack_s x_0 x_1 x_2 x_3 w_4 w_2 1 (bvadd (_ bv61 6) ?x154)))))
 (let (($x4653 (= ?x8055 (stack_s x_0 x_1 x_2 x_3 w_4 w_2 1 (bvadd (_ bv60 6) ?x154)))))
 (let (($x7043 (= ?x3363 (stack_s x_0 x_1 x_2 x_3 w_4 w_2 1 (bvadd (_ bv63 6) ?x154)))))
 (let (($x6826 (= ?x2986 (stack_s x_0 x_1 x_2 x_3 w_4 w_2 1 (bvadd (_ bv59 6) ?x154)))))
 (let (($x189 (exc_halt_s 1)))
 (let (($x4791 (= $x189 (or $x57 (not (= ((_ extract 6 6) (bvadd (_ bv1 7) (concat (_ bv0 1) ?x72))) (_ bv0 1)))))))
 (let (($x1996 (forall ((w (_ BitVec 256)) )(let ((?x1521 (storage_s x_0 x_1 x_2 x_3 w_4 w_2 0 w)))
 (let ((?x6946 (storage_s x_0 x_1 x_2 x_3 w_4 w_2 1 w)))
 (= ?x6946 ?x1521))))
 ))
 (let (($x1336 (forall ((n (_ BitVec 6)) )(let ((?x72 (sc_s 0)))
 (let (($x10370 (bvsle ?x72 n)))
 (let ((?x9782 (stack_s x_0 x_1 x_2 x_3 w_4 w_2 0 n)))
 (let ((?x2337 (stack_s x_0 x_1 x_2 x_3 w_4 w_2 1 n)))
 (or (= ?x2337 ?x9782) $x10370))))))
 ))
 (let (($x5483 (= ?x154 (bvadd (_ bv1 6) ?x72))))
 (let ((?x4604 (used_gas_s x_0 x_1 x_2 x_3 w_4 w_2 1)))
 (let (($x3759 (forall ((w (_ BitVec 256)) )(let ((?x1521 (storage_s x_0 x_1 x_2 x_3 w_4 w_2 0 w)))
 (= ?x1521 (_ bv0 256))))
 ))
 (let (($x4858 (= ?x3114 0)))
 (let (($x11124 (not $x57)))
 (let (($x3840 (= (stack_s x_0 x_1 x_2 x_3 w_4 w_2 0 (_ bv3 6)) x_3)))
 (let (($x2795 (= (stack_s x_0 x_1 x_2 x_3 w_4 w_2 0 (_ bv2 6)) x_2)))
 (let (($x304 (= (stack_s x_0 x_1 x_2 x_3 w_4 w_2 0 (_ bv1 6)) x_1)))
 (let (($x3013 (= (stack_s x_0 x_1 x_2 x_3 w_4 w_2 0 (_ bv0 6)) x_0)))
 (let (($x289 (= ?x72 (_ bv4 6))))
 (and $x289 $x3013 $x304 $x2795 $x3840 $x11124 $x4858 $x3759 (= (stack_s x_0 x_1 x_2 x_3 w_4 w_2 1 ?x72) w_4) (= ?x4604 (+ 3 ?x3114)) $x5483 $x1336 $x1996 $x4791 $x6826 $x7043 $x4653 $x11774 $x1872 $x3287 $x564 $x7585 $x6987 $x6900 (= ?x4460 ?x3363) (= (stack_s x_0 x_1 x_2 x_3 w_4 w_2 3 ?x10940) ?x3363) (= (stack_s x_0 x_1 x_2 x_3 w_4 w_2 3 ?x11456) ?x8055) (= (stack_s x_0 x_1 x_2 x_3 w_4 w_2 3 ?x9995) ?x10257) (= (stack_s x_0 x_1 x_2 x_3 w_4 w_2 3 ?x5834) ?x4449) (= (stack_s x_0 x_1 x_2 x_3 w_4 w_2 3 ?x5211) ?x2986) $x5017 $x7666 $x762 $x7324 $x5946 $x630 $x472 (= ?x4305 ?x3893) $x5663 $x3132 $x1015 $x5467 $x9957 $x6597 $x5659 $x10938 (= $x11317 (or $x7172 $x7527)) $x11277 $x11334 $x2787 $x2469 $x5609 $x11383 $x10480 (= (stack_t x_0 x_1 x_2 x_3 w_4 w_2 1 ?x63) w_2) (= ?x4558 (+ 3 ?x9920)) $x7135 $x8771 $x11699 $x3632 $x1334 $x3519 $x5193 $x3859 $x6352 $x10027 $x4632 $x863 $x6731 $x10528 $x1399 $x6217 $x2448 $x2407 $x11115 $x8173 $x10240 $x9855 $x2044 (= ?x1098 (bvadd (_ bv1 6) ?x6438)) $x9622 $x7729 (= $x3723 $x3825) $x4614 $x8989 (= ?x919 (bvadd (_ bv63 6) ?x1098)) $x6649 $x4704 $x5168 $x73 $x7923 $x58 $x6618 $x8121 (not (and $x929 $x11457 $x889 $x7653))))))))))))))))))))))))))))))))))))))))))))))))))))))))))))))))))))))))))))))))))))))))))))))))))))))))))))))))))))))))))))))))))))))))))))))))))
 )
(check-sat)
(get-proof)
